p tw 200 3001 7 
1 8 
1 61 
2 9 
2 10 
2 62 
3 7 
3 10 
3 71 
4 8 
4 9 
4 72 
5 7 
5 9 
5 111 
6 8 
6 10 
6 112 
11 17 
11 18 
11 81 
12 19 
12 20 
12 82 
13 17 
13 20 
13 101 
14 18 
14 19 
14 102 
15 17 
15 19 
15 113 
16 18 
16 20 
16 114 
21 27 
21 28 
21 41 
22 29 
22 30 
22 42 
23 27 
23 30 
23 83 
24 28 
24 29 
24 84 
25 27 
25 29 
25 151 
26 28 
26 30 
26 152 
31 37 
31 38 
31 141 
32 39 
32 40 
32 142 
33 37 
33 40 
33 153 
34 38 
34 39 
34 154 
35 37 
35 39 
35 171 
36 38 
36 40 
36 172 
41 47 
41 48 
42 49 
42 50 
43 47 
43 50 
43 51 
44 48 
44 49 
44 52 
45 47 
45 49 
45 191 
46 48 
46 50 
46 192 
51 57 
51 58 
52 59 
52 60 
53 57 
53 60 
53 73 
54 58 
54 59 
54 74 
55 57 
55 59 
55 85 
56 58 
56 60 
56 86 
61 67 
61 68 
62 69 
62 70 
63 67 
63 70 
63 143 
64 68 
64 69 
64 144 
65 67 
65 69 
65 181 
66 68 
66 70 
66 182 
71 77 
71 78 
72 79 
72 80 
73 77 
73 80 
74 78 
74 79 
75 77 
75 79 
75 91 
76 78 
76 80 
76 92 
81 87 
81 88 
82 89 
82 90 
83 87 
83 90 
84 88 
84 89 
85 87 
85 89 
86 88 
86 90 
91 97 
91 98 
92 99 
92 100 
93 97 
93 100 
93 161 
94 98 
94 99 
94 162 
95 97 
95 99 
95 193 
96 98 
96 100 
96 194 
101 107 
101 108 
102 109 
102 110 
103 107 
103 110 
103 121 
104 108 
104 109 
104 122 
105 107 
105 109 
105 131 
106 108 
106 110 
106 132 
111 117 
111 118 
112 119 
112 120 
113 117 
113 120 
114 118 
114 119 
115 117 
115 119 
115 145 
116 118 
116 120 
116 146 
121 127 
121 128 
122 129 
122 130 
123 127 
123 130 
123 163 
124 128 
124 129 
124 164 
125 127 
125 129 
125 183 
126 128 
126 130 
126 184 
131 137 
131 138 
132 139 
132 140 
133 137 
133 140 
133 185 
134 138 
134 139 
134 186 
135 137 
135 139 
135 195 
136 138 
136 140 
136 196 
141 147 
141 148 
142 149 
142 150 
143 147 
143 150 
144 148 
144 149 
145 147 
145 149 
146 148 
146 150 
151 157 
151 158 
152 159 
152 160 
153 157 
153 160 
154 158 
154 159 
155 157 
155 159 
155 173 
156 158 
156 160 
156 174 
161 167 
161 168 
162 169 
162 170 
163 167 
163 170 
164 168 
164 169 
165 167 
165 169 
165 175 
166 168 
166 170 
166 176 
171 177 
171 178 
172 179 
172 180 
173 177 
173 180 
174 178 
174 179 
175 177 
175 179 
176 178 
176 180 
181 187 
181 188 
182 189 
182 190 
183 187 
183 190 
184 188 
184 189 
185 187 
185 189 
186 188 
186 190 
191 197 
191 198 
192 199 
192 200 
193 197 
193 200 
194 198 
194 199 
195 197 
195 199 
196 198 
196 200 
